(declare-const a Real)
(declare-const b Real)
(declare-const c Real)
(assert (= (+ a b c) 1))
(assert (> a 0))
(assert (> b 0))
(assert (> c 0))
(assert (not (<= (+ (/ 19 6) a (* -2 (pow (+ a (* b c)) (/ 1 2))) (* -2 (pow (+ b (* a c)) (/ 1 2))) (* -2 (pow (+ c (* a b)) (/ 1 2))) (* (/ 1 3) (pow (+ c (pow b 2) (* a (pow 2 (/ 1 2))) (* c (pow 2 (/ 1 2)))) 3))) 0)))
(check-sat)
(get-model)
(exit)